ID_groupA
3749
3749
15965
25934
23418
25271
25934
3749
3749
23418
25934
15965
3749
3749
25271
15965
15965
3749
25271
25934
3749
25271
3749
25934
15965
3749
3749
25271
25271
3749
25271
25271
3749
25271
3749
3749
15965
3749
25271
15965
3749
25271
15965
15965
25271
3749
15965
15965
15965
25271
3749
15965
25934
25934
3749
25934
25934
15965
25934
3749
25271
3749
3749
3749
23418
3749
3749
3749
3749
25271
25271
25271
3749
25271
15965
25271
25271
3749
3749
3749
25934
15965
25934
3749
3749
3749
3749
15965
3749
3749
3749
3749
15965
3749
3749
23418
15965
3749
3749
25934
25934
3749
15965
15965
3749
